This is Ipopt version 3.10.0, running with linear solver ma27.

Number of nonzeros in equality constraint Jacobian...:        0
Number of nonzeros in inequality constraint Jacobian.:       16
Number of nonzeros in Lagrangian Hessian.............:        0

Total number of variables............................:       16
                     variables with only lower bounds:        0
                variables with lower and upper bounds:       16
                     variables with only upper bounds:        0
Total number of equality constraints.................:        0
Total number of inequality constraints...............:        1
        inequality constraints with only lower bounds:        0
   inequality constraints with lower and upper bounds:        0
        inequality constraints with only upper bounds:        1

iter    objective    inf_pr   inf_du lg(mu)  ||d||  lg(rg) alpha_du alpha_pr  ls
   0  6.5904077e-04 7.50e-01 9.96e-01   0.0 0.00e+00    -  0.00e+00 0.00e+00   0
